100 100 100
50
44 20 4
51 100 65
1 7 43
39 49 17
89 79 24
35 37 27
25 18 2
25 28 14
50 38 18
12 98 81
41 67 78
46 30 10
80 67 64
8 37 33
94 88 14
17 39 6
83 72 5
31 35 21
19 38 47
20 44 13
83 95 15
39 31 9
8 42 43
8 41 10
36 87 72
11 42 16
49 22 23
84 59 67
30 32 14
94 59 67
16 30 20
9 100 81
98 73 25
43 22 9
70 33 93
43 84 73
45 3 37
34 4 42
98 73 60
12 32 13
97 86 44
73 15 68
23 39 34
42 34 17
6 43 26
74 54 53
39 5 6
50 39 24
23 48 32
10 48 32
